Cost: 755
0-25-18-24-16-0
0-26-12-17-0
0-32-44-3-0
0-6-33-51-0
0-27-13-52-0
0-28-22-1-0
0-34-46-8-0
0-42-41-43-0
0-39-9-40-0
0-38-11-53-0
0-19-35-7-0
0-48-29-45-0
0-2-30-4-0
0-36-37-5-0
Cost: 755
0-52-13-27-0
0-51-33-6-0
0-34-46-8-0
0-36-37-5-0
0-38-11-53-0
0-43-41-42-0
0-7-35-19-0
0-28-22-1-0
0-40-9-39-0
0-16-24-18-25-0
0-45-29-48-0
0-2-30-4-0
0-26-12-17-0
0-3-44-32-0
Cost: 755
0-19-35-7-0
0-27-13-52-0
0-36-37-5-0
0-45-29-48-0
0-32-44-3-0
0-39-9-40-0
0-17-12-26-0
0-6-33-51-0
0-34-8-46-0
0-38-11-53-0
0-28-22-1-0
0-4-30-2-0
0-16-24-18-25-0
0-42-41-43-0
Cost: 756
0-17-12-26-0
0-38-11-53-0
0-16-24-18-25-0
0-22-28-21-29-0
0-5-37-36-0
0-52-13-27-0
0-2-1-33-0
0-43-41-42-0
0-39-9-40-0
0-51-6-0
0-45-48-30-0
0-46-34-4-0
0-7-35-8-0
0-32-44-3-0
Cost: 755
0-17-12-26-0
0-16-24-18-25-0
0-40-9-39-0
0-52-13-27-0
0-6-33-51-0
0-2-30-4-0
0-3-44-32-0
0-48-29-45-0
0-28-22-1-0
0-36-37-5-0
0-38-11-53-0
0-8-46-34-0
0-42-41-43-0
0-19-35-7-0
Cost: 755
0-45-29-48-0
0-43-41-42-0
0-3-44-32-0
0-38-11-53-0
0-1-22-28-0
0-52-13-27-0
0-8-46-34-0
0-36-37-5-0
0-16-24-18-25-0
0-40-9-39-0
0-4-30-2-0
0-51-33-6-0
0-7-35-19-0
0-26-12-17-0
Cost: 755
0-25-18-24-16-0
0-19-35-7-0
0-28-22-1-0
0-48-29-45-0
0-42-41-43-0
0-3-44-32-0
0-38-11-53-0
0-2-30-4-0
0-27-13-52-0
0-46-8-34-0
0-36-37-5-0
0-39-9-40-0
0-17-12-26-0
0-51-33-6-0
Cost: 755
0-19-35-7-0
0-25-18-24-16-0
0-17-12-26-0
0-28-22-1-0
0-38-11-53-0
0-36-37-5-0
0-34-46-8-0
0-32-44-3-0
0-51-33-6-0
0-27-13-52-0
0-2-30-4-0
0-45-29-48-0
0-42-41-43-0
0-39-9-40-0
Cost: 755
0-34-8-46-0
0-52-13-27-0
0-51-33-6-0
0-28-22-1-0
0-48-29-45-0
0-5-37-36-0
0-16-24-18-25-0
0-53-11-38-0
0-7-35-19-0
0-17-12-26-0
0-39-9-40-0
0-2-30-4-0
0-32-44-3-0
0-42-41-43-0
Cost: 755
0-2-30-4-0
0-17-12-26-0
0-51-33-6-0
0-27-13-52-0
0-36-37-5-0
0-28-22-1-0
0-48-29-45-0
0-53-11-38-0
0-39-9-40-0
0-32-44-3-0
0-16-24-18-25-0
0-19-35-7-0
0-34-8-46-0
0-42-41-43-0
Cost: 755
0-2-30-4-0
0-36-37-5-0
0-19-35-7-0
0-34-8-46-0
0-32-44-3-0
0-48-29-45-0
0-51-33-6-0
0-38-11-53-0
0-43-41-42-0
0-27-13-52-0
0-17-12-26-0
0-40-9-39-0
0-16-24-18-25-0
0-28-22-1-0
Cost: 755
0-42-41-43-0
0-38-11-53-0
0-3-44-32-0
0-17-12-26-0
0-34-8-46-0
0-5-37-36-0
0-51-33-6-0
0-19-35-7-0
0-25-18-24-16-0
0-2-30-4-0
0-52-13-27-0
0-28-22-1-0
0-39-9-40-0
0-48-29-45-0
Cost: 755
0-32-44-3-0
0-27-13-52-0
0-48-29-45-0
0-39-9-40-0
0-26-12-17-0
0-36-37-5-0
0-16-24-18-25-0
0-2-30-4-0
0-43-41-42-0
0-19-35-7-0
0-46-8-34-0
0-6-33-51-0
0-1-22-28-0
0-53-11-38-0
Cost: 755
0-51-33-6-0
0-2-30-4-0
0-52-13-27-0
0-38-11-53-0
0-43-41-42-0
0-48-29-45-0
0-32-44-3-0
0-39-9-40-0
0-36-37-5-0
0-17-12-26-0
0-8-46-34-0
0-28-22-1-0
0-7-35-19-0
0-25-18-24-16-0
Cost: 755
0-7-35-19-0
0-34-46-8-0
0-48-29-45-0
0-36-37-5-0
0-32-44-3-0
0-17-12-26-0
0-4-30-2-0
0-52-13-27-0
0-42-41-43-0
0-28-22-1-0
0-16-24-18-25-0
0-51-33-6-0
0-39-9-40-0
0-53-11-38-0
Cost: 755
0-28-22-1-0
0-19-35-7-0
0-52-13-27-0
0-51-33-6-0
0-32-44-3-0
0-38-11-53-0
0-42-41-43-0
0-36-37-5-0
0-17-12-26-0
0-34-8-46-0
0-39-9-40-0
0-2-30-4-0
0-48-29-45-0
0-25-18-24-16-0
Cost: 755
0-19-35-7-0
0-25-18-24-16-0
0-40-9-39-0
0-52-13-27-0
0-48-29-45-0
0-38-11-53-0
0-28-22-1-0
0-46-8-34-0
0-3-44-32-0
0-6-33-51-0
0-42-41-43-0
0-2-30-4-0
0-26-12-17-0
0-5-37-36-0
Cost: 758
0-21-36-47-0
0-40-12-26-0
0-16-23-22-28-0
0-7-35-8-0
0-15-37-5-0
0-17-51-6-0
0-32-44-3-0
0-39-9-25-0
0-42-41-43-0
0-46-34-4-0
0-45-27-52-0
0-30-48-29-0
0-10-38-11-0
0-2-1-33-0
Cost: 755
0-39-9-40-0
0-17-12-26-0
0-46-8-34-0
0-38-11-53-0
0-19-35-7-0
0-32-44-3-0
0-36-37-5-0
0-16-24-18-25-0
0-45-29-48-0
0-28-22-1-0
0-6-33-51-0
0-2-30-4-0
0-27-13-52-0
0-42-41-43-0
Cost: 755
0-39-9-40-0
0-17-12-26-0
0-46-8-34-0
0-38-11-53-0
0-19-35-7-0
0-32-44-3-0
0-36-37-5-0
0-16-24-18-25-0
0-45-29-48-0
0-28-22-1-0
0-6-33-51-0
0-2-30-4-0
0-27-13-52-0
0-42-41-43-0
Cost: 755
0-8-46-34-0
0-3-44-32-0
0-28-22-1-0
0-5-37-36-0
0-19-35-7-0
0-42-41-43-0
0-27-13-52-0
0-17-12-26-0
0-45-29-48-0
0-38-11-53-0
0-4-30-2-0
0-25-18-24-16-0
0-40-9-39-0
0-51-33-6-0
Cost: 755
0-25-18-24-16-0
0-51-33-6-0
0-19-35-7-0
0-53-11-38-0
0-43-41-42-0
0-28-22-1-0
0-36-37-5-0
0-52-13-27-0
0-4-30-2-0
0-34-8-46-0
0-3-44-32-0
0-48-29-45-0
0-26-12-17-0
0-40-9-39-0
Cost: 755
0-17-12-26-0
0-52-13-27-0
0-39-9-40-0
0-19-35-7-0
0-32-44-3-0
0-36-37-5-0
0-2-30-4-0
0-45-29-48-0
0-51-33-6-0
0-28-22-1-0
0-38-11-53-0
0-42-41-43-0
0-46-8-34-0
0-25-18-24-16-0
Cost: 755
0-25-18-24-16-0
0-51-33-6-0
0-19-35-7-0
0-53-11-38-0
0-43-41-42-0
0-28-22-1-0
0-36-37-5-0
0-52-13-27-0
0-4-30-2-0
0-34-8-46-0
0-3-44-32-0
0-48-29-45-0
0-26-12-17-0
0-40-9-39-0
Cost: 758
0-21-36-47-0
0-40-12-26-0
0-16-23-22-28-0
0-7-35-8-0
0-15-37-5-0
0-17-51-6-0
0-32-44-3-0
0-39-9-25-0
0-42-41-43-0
0-46-34-4-0
0-45-27-52-0
0-30-48-29-0
0-10-38-11-0
0-2-1-33-0
Cost: 755
0-39-9-40-0
0-17-12-26-0
0-46-8-34-0
0-38-11-53-0
0-19-35-7-0
0-32-44-3-0
0-36-37-5-0
0-16-24-18-25-0
0-45-29-48-0
0-28-22-1-0
0-6-33-51-0
0-2-30-4-0
0-27-13-52-0
0-42-41-43-0
Cost: 755
0-6-33-51-0
0-26-12-17-0
0-45-29-48-0
0-19-35-7-0
0-40-9-39-0
0-16-24-18-25-0
0-2-30-4-0
0-36-37-5-0
0-53-11-38-0
0-3-44-32-0
0-1-22-28-0
0-27-13-52-0
0-43-41-42-0
0-34-8-46-0
Cost: 773
0-42-41-43-0
0-34-46-0
0-35-7-8-0
0-26-12-40-0
0-32-3-44-0
0-30-45-4-0
0-53-14-19-0
0-27-13-52-0
0-37-36-5-0
0-39-10-38-0
0-22-28-48-29-0
0-25-18-24-16-0
0-33-1-2-0
0-17-51-6-0
Cost: 761
0-4-45-29-0
0-40-12-26-0
0-25-9-39-0
0-5-37-36-0
0-46-52-34-0
0-8-35-7-0
0-2-1-33-0
0-32-44-3-0
0-30-48-21-0
0-16-23-22-28-0
0-38-11-53-0
0-19-13-27-0
0-42-41-43-0
0-17-51-6-0
Cost: 755
0-28-22-1-0
0-2-30-4-0
0-40-9-39-0
0-51-33-6-0
0-42-41-43-0
0-38-11-53-0
0-17-12-26-0
0-36-37-5-0
0-45-29-48-0
0-52-13-27-0
0-46-8-34-0
0-7-35-19-0
0-3-44-32-0
0-16-24-18-25-0
Cost: 755
0-26-12-17-0
0-46-8-34-0
0-1-22-28-0
0-27-13-52-0
0-2-30-4-0
0-39-9-40-0
0-25-18-24-16-0
0-5-37-36-0
0-19-35-7-0
0-48-29-45-0
0-51-33-6-0
0-38-11-53-0
0-43-41-42-0
0-3-44-32-0
